
  22   10
  10   10   10   10   10   10   10   10   10   10

   0   0   0   0   0   0   0   0   0   0   0   2 2 16 
   9  10  10  10  10  10  10  10  10  10  10   1 3 
   2  10  10  10  10  10  10  10  10  10  10   1 4 
   2  10  10  10  10  10  10  10  10  10  10   2 21 5 
   7  10  10  10  10  10  10  10  10  10  10   1 6 
   1  10  10  10  10  10  10  10  10  10  10   1 7 
   8  10  10  10  10  10  10  10  10  10  10   1 8 
   8  10  10  10  10  10  10  10  10  10  10   1 9 
   1  10  10  10  10  10  10  10  10  10  10   1 10 
   3  10  10  10  10  10  10  10  10  10  10   1 11 
   2  10  10  10  10  10  10  10  10  10  10   1 12 
   8  10  10  10  10  10  10  10  10  10  10   1 13 
  10  10  10  10  10  10  10  10  10  10  10   1 14 
   4  10  10  10  10  10  10  10  10  10  10   1 15 
   1  10  10  10  10  10  10  10  10  10  10   1 17 
   8  10  10  10  10  10  10  10  10  10  10   1 17 
  10  10  10  10  10  10  10  10  10  10  10   1 18 
   2  10  10  10  10  10  10  10  10  10  10   1 19 
   9  10  10  10  10  10  10  10  10  10  10   1 20 
   6  10  10  10  10  10  10  10  10  10  10   1 22
   6  10  10  10  10  10  10  10  10  10  10   1 22
   0   0   0   0   0   0   0   0   0   0   0   0 
